unsat
(:binary-propagations  7
 :conflicts            1
 :final-checks         1
 :max-generation       1
 :max-memory           23.75
 :memory               21.05
 :mk-bool-var          524
 :mk-clause            133
 :mk-clause-binary     546
 :num-allocs           9106764
 :num-checks           1
 :propagations         7
 :quant-instantiations 92
 :restarts             1
 :rlimit-count         135836
 :time                 0.03)
